; benchmark generated from python API
(set-info :status unknown)
(declare-fun f11 (Bool Bool) Bool)
(declare-fun f10 (Bool Bool) Bool)
(declare-fun f9 (Bool Bool) Bool)
(declare-fun f8 (Bool Bool) Bool)
(declare-fun f7 (Bool Bool) Bool)
(declare-fun f6 (Bool Bool) Bool)
(declare-fun f5 (Bool Bool) Bool)
(declare-fun f4 (Bool Bool) Bool)
(declare-fun f3 (Bool Bool) Bool)
(declare-fun c_11_9_10 () Bool)
(declare-fun c_11_8_10 () Bool)
(declare-fun c_11_8_9 () Bool)
(declare-fun c_11_7_10 () Bool)
(declare-fun c_11_7_9 () Bool)
(declare-fun c_11_7_8 () Bool)
(declare-fun c_11_6_10 () Bool)
(declare-fun c_11_6_9 () Bool)
(declare-fun c_11_6_8 () Bool)
(declare-fun c_11_6_7 () Bool)
(declare-fun c_11_5_10 () Bool)
(declare-fun c_11_5_9 () Bool)
(declare-fun c_11_5_8 () Bool)
(declare-fun c_11_5_7 () Bool)
(declare-fun c_11_5_6 () Bool)
(declare-fun c_11_4_10 () Bool)
(declare-fun c_11_4_9 () Bool)
(declare-fun c_11_4_8 () Bool)
(declare-fun c_11_4_7 () Bool)
(declare-fun c_11_4_6 () Bool)
(declare-fun c_11_4_5 () Bool)
(declare-fun c_11_3_10 () Bool)
(declare-fun c_11_3_9 () Bool)
(declare-fun c_11_3_8 () Bool)
(declare-fun c_11_3_7 () Bool)
(declare-fun c_11_3_6 () Bool)
(declare-fun c_11_3_5 () Bool)
(declare-fun c_11_3_4 () Bool)
(declare-fun c_11_2_10 () Bool)
(declare-fun c_11_2_9 () Bool)
(declare-fun c_11_2_8 () Bool)
(declare-fun c_11_2_7 () Bool)
(declare-fun c_11_2_6 () Bool)
(declare-fun c_11_2_5 () Bool)
(declare-fun c_11_2_4 () Bool)
(declare-fun c_11_2_3 () Bool)
(declare-fun c_11_1_10 () Bool)
(declare-fun c_11_1_9 () Bool)
(declare-fun c_11_1_8 () Bool)
(declare-fun c_11_1_7 () Bool)
(declare-fun c_11_1_6 () Bool)
(declare-fun c_11_1_5 () Bool)
(declare-fun c_11_1_4 () Bool)
(declare-fun c_11_1_3 () Bool)
(declare-fun c_11_1_2 () Bool)
(declare-fun c_11_0_10 () Bool)
(declare-fun c_11_0_9 () Bool)
(declare-fun c_11_0_8 () Bool)
(declare-fun c_11_0_7 () Bool)
(declare-fun c_11_0_6 () Bool)
(declare-fun c_11_0_5 () Bool)
(declare-fun c_11_0_4 () Bool)
(declare-fun c_11_0_3 () Bool)
(declare-fun c_11_0_2 () Bool)
(declare-fun c_11_0_1 () Bool)
(declare-fun c_10_8_9 () Bool)
(declare-fun c_10_7_9 () Bool)
(declare-fun c_10_7_8 () Bool)
(declare-fun c_10_6_9 () Bool)
(declare-fun c_10_6_8 () Bool)
(declare-fun c_10_6_7 () Bool)
(declare-fun c_10_5_9 () Bool)
(declare-fun c_10_5_8 () Bool)
(declare-fun c_10_5_7 () Bool)
(declare-fun c_10_5_6 () Bool)
(declare-fun c_10_4_9 () Bool)
(declare-fun c_10_4_8 () Bool)
(declare-fun c_10_4_7 () Bool)
(declare-fun c_10_4_6 () Bool)
(declare-fun c_10_4_5 () Bool)
(declare-fun c_10_3_9 () Bool)
(declare-fun c_10_3_8 () Bool)
(declare-fun c_10_3_7 () Bool)
(declare-fun c_10_3_6 () Bool)
(declare-fun c_10_3_5 () Bool)
(declare-fun c_10_3_4 () Bool)
(declare-fun c_10_2_9 () Bool)
(declare-fun c_10_2_8 () Bool)
(declare-fun c_10_2_7 () Bool)
(declare-fun c_10_2_6 () Bool)
(declare-fun c_10_2_5 () Bool)
(declare-fun c_10_2_4 () Bool)
(declare-fun c_10_2_3 () Bool)
(declare-fun c_10_1_9 () Bool)
(declare-fun c_10_1_8 () Bool)
(declare-fun c_10_1_7 () Bool)
(declare-fun c_10_1_6 () Bool)
(declare-fun c_10_1_5 () Bool)
(declare-fun c_10_1_4 () Bool)
(declare-fun c_10_1_3 () Bool)
(declare-fun c_10_1_2 () Bool)
(declare-fun c_10_0_9 () Bool)
(declare-fun c_10_0_8 () Bool)
(declare-fun c_10_0_7 () Bool)
(declare-fun c_10_0_6 () Bool)
(declare-fun c_10_0_5 () Bool)
(declare-fun c_10_0_4 () Bool)
(declare-fun c_10_0_3 () Bool)
(declare-fun c_10_0_2 () Bool)
(declare-fun c_10_0_1 () Bool)
(declare-fun c_9_7_8 () Bool)
(declare-fun c_9_6_8 () Bool)
(declare-fun c_9_6_7 () Bool)
(declare-fun c_9_5_8 () Bool)
(declare-fun c_9_5_7 () Bool)
(declare-fun c_9_5_6 () Bool)
(declare-fun c_9_4_8 () Bool)
(declare-fun c_9_4_7 () Bool)
(declare-fun c_9_4_6 () Bool)
(declare-fun c_9_4_5 () Bool)
(declare-fun c_9_3_8 () Bool)
(declare-fun c_9_3_7 () Bool)
(declare-fun c_9_3_6 () Bool)
(declare-fun c_9_3_5 () Bool)
(declare-fun c_9_3_4 () Bool)
(declare-fun c_9_2_8 () Bool)
(declare-fun c_9_2_7 () Bool)
(declare-fun c_9_2_6 () Bool)
(declare-fun c_9_2_5 () Bool)
(declare-fun c_9_2_4 () Bool)
(declare-fun c_9_2_3 () Bool)
(declare-fun c_9_1_8 () Bool)
(declare-fun c_9_1_7 () Bool)
(declare-fun c_9_1_6 () Bool)
(declare-fun c_9_1_5 () Bool)
(declare-fun c_9_1_4 () Bool)
(declare-fun c_9_1_3 () Bool)
(declare-fun c_9_1_2 () Bool)
(declare-fun c_9_0_8 () Bool)
(declare-fun c_9_0_7 () Bool)
(declare-fun c_9_0_6 () Bool)
(declare-fun c_9_0_5 () Bool)
(declare-fun c_9_0_4 () Bool)
(declare-fun c_9_0_3 () Bool)
(declare-fun c_9_0_2 () Bool)
(declare-fun c_9_0_1 () Bool)
(declare-fun c_8_6_7 () Bool)
(declare-fun c_8_5_7 () Bool)
(declare-fun c_8_5_6 () Bool)
(declare-fun c_8_4_7 () Bool)
(declare-fun c_8_4_6 () Bool)
(declare-fun c_8_4_5 () Bool)
(declare-fun c_8_3_7 () Bool)
(declare-fun c_8_3_6 () Bool)
(declare-fun c_8_3_5 () Bool)
(declare-fun c_8_3_4 () Bool)
(declare-fun c_8_2_7 () Bool)
(declare-fun c_8_2_6 () Bool)
(declare-fun c_8_2_5 () Bool)
(declare-fun c_8_2_4 () Bool)
(declare-fun c_8_2_3 () Bool)
(declare-fun c_8_1_7 () Bool)
(declare-fun c_8_1_6 () Bool)
(declare-fun c_8_1_5 () Bool)
(declare-fun c_8_1_4 () Bool)
(declare-fun c_8_1_3 () Bool)
(declare-fun c_8_1_2 () Bool)
(declare-fun c_8_0_7 () Bool)
(declare-fun c_8_0_6 () Bool)
(declare-fun c_8_0_5 () Bool)
(declare-fun c_8_0_4 () Bool)
(declare-fun c_8_0_3 () Bool)
(declare-fun c_8_0_2 () Bool)
(declare-fun c_8_0_1 () Bool)
(declare-fun c_7_5_6 () Bool)
(declare-fun c_7_4_6 () Bool)
(declare-fun c_7_4_5 () Bool)
(declare-fun c_7_3_6 () Bool)
(declare-fun c_7_3_5 () Bool)
(declare-fun c_7_3_4 () Bool)
(declare-fun c_7_2_6 () Bool)
(declare-fun c_7_2_5 () Bool)
(declare-fun c_7_2_4 () Bool)
(declare-fun c_7_2_3 () Bool)
(declare-fun c_7_1_6 () Bool)
(declare-fun c_7_1_5 () Bool)
(declare-fun c_7_1_4 () Bool)
(declare-fun c_7_1_3 () Bool)
(declare-fun c_7_1_2 () Bool)
(declare-fun c_7_0_6 () Bool)
(declare-fun c_7_0_5 () Bool)
(declare-fun c_7_0_4 () Bool)
(declare-fun c_7_0_3 () Bool)
(declare-fun c_7_0_2 () Bool)
(declare-fun c_7_0_1 () Bool)
(declare-fun c_6_4_5 () Bool)
(declare-fun c_6_3_5 () Bool)
(declare-fun c_6_3_4 () Bool)
(declare-fun c_6_2_5 () Bool)
(declare-fun c_6_2_4 () Bool)
(declare-fun c_6_2_3 () Bool)
(declare-fun c_6_1_5 () Bool)
(declare-fun c_6_1_4 () Bool)
(declare-fun c_6_1_3 () Bool)
(declare-fun c_6_1_2 () Bool)
(declare-fun c_6_0_5 () Bool)
(declare-fun c_6_0_4 () Bool)
(declare-fun c_6_0_3 () Bool)
(declare-fun c_6_0_2 () Bool)
(declare-fun c_6_0_1 () Bool)
(declare-fun c_5_3_4 () Bool)
(declare-fun c_5_2_4 () Bool)
(declare-fun c_5_2_3 () Bool)
(declare-fun c_5_1_4 () Bool)
(declare-fun c_5_1_3 () Bool)
(declare-fun c_5_1_2 () Bool)
(declare-fun c_5_0_4 () Bool)
(declare-fun c_5_0_3 () Bool)
(declare-fun c_5_0_2 () Bool)
(declare-fun c_5_0_1 () Bool)
(declare-fun c_4_2_3 () Bool)
(declare-fun c_4_1_3 () Bool)
(declare-fun c_4_1_2 () Bool)
(declare-fun c_4_0_3 () Bool)
(declare-fun c_4_0_2 () Bool)
(declare-fun c_4_0_1 () Bool)
(declare-fun c_3_1_2 () Bool)
(declare-fun c_3_0_2 () Bool)
(declare-fun c_3_0_1 () Bool)
(declare-fun g_1_11 () Bool)
(declare-fun g_1_10 () Bool)
(declare-fun g_1_9 () Bool)
(declare-fun g_1_8 () Bool)
(declare-fun g_1_7 () Bool)
(declare-fun g_1_6 () Bool)
(declare-fun g_1_5 () Bool)
(declare-fun g_1_4 () Bool)
(declare-fun g_1_3 () Bool)
(declare-fun g_1_2 () Bool)
(declare-fun g_1_1 () Bool)
(declare-fun g_1_0 () Bool)
(declare-fun g_0_11 () Bool)
(declare-fun g_0_10 () Bool)
(declare-fun g_0_9 () Bool)
(declare-fun g_0_8 () Bool)
(declare-fun g_0_7 () Bool)
(declare-fun g_0_6 () Bool)
(declare-fun g_0_5 () Bool)
(declare-fun g_0_4 () Bool)
(declare-fun g_0_3 () Bool)
(declare-fun g_0_2 () Bool)
(declare-fun g_0_1 () Bool)
(declare-fun g_0_0 () Bool)
(assert
 (forall ((x0 Bool) (x1 Bool) (x2 Bool) )(exists ((x3 Bool) (x4 Bool) (x5 Bool) (x6 Bool) (x7 Bool) (x8 Bool) (x9 Bool) (x10 Bool) (x11 Bool) )(let (($x1085 (f11 false false)))
 (let (($x1642 (and $x1085 (= (not (f11 false true)) (f11 true false)) (not (f11 true true)))))
 (let (($x1072 (f10 false false)))
 (let (($x1639 (and $x1072 (= (not (f10 false true)) (f10 true false)) (not (f10 true true)))))
 (let (($x1059 (f9 false false)))
 (let (($x1636 (and $x1059 (= (not (f9 false true)) (f9 true false)) (not (f9 true true)))))
 (let (($x1046 (f8 false false)))
 (let (($x1633 (and $x1046 (= (not (f8 false true)) (f8 true false)) (not (f8 true true)))))
 (let (($x1033 (f7 false false)))
 (let (($x1630 (and $x1033 (= (not (f7 false true)) (f7 true false)) (not (f7 true true)))))
 (let (($x1020 (f6 false false)))
 (let (($x1627 (and $x1020 (= (not (f6 false true)) (f6 true false)) (not (f6 true true)))))
 (let (($x1007 (f5 false false)))
 (let (($x1624 (and $x1007 (= (not (f5 false true)) (f5 true false)) (not (f5 true true)))))
 (let (($x994 (f4 false false)))
 (let (($x1621 (and $x994 (= (not (f4 false true)) (f4 true false)) (not (f4 true true)))))
 (let (($x981 (f3 false false)))
 (let (($x1618 (and $x981 (= (not (f3 false true)) (f3 true false)) (not (f3 true true)))))
 (let (($x1669 ((_ at-least 7) (not $x1618) (not $x1621) (not $x1624) (not $x1627) (not $x1630) (not $x1633) (not $x1636) (not $x1639) (not $x1642))))
 (let (($x1091 (f11 true true)))
 (let (($x1089 (f11 true false)))
 (let (($x1087 (f11 false true)))
 (let (($x1086 (not $x1085)))
 (let (($x1643 (or (and $x1086 (not $x1087) (not $x1089) $x1091) (and $x1086 $x1087 $x1089 $x1091) $x1642)))
 (let (($x1078 (f10 true true)))
 (let (($x1076 (f10 true false)))
 (let (($x1074 (f10 false true)))
 (let (($x1073 (not $x1072)))
 (let (($x1640 (or (and $x1073 (not $x1074) (not $x1076) $x1078) (and $x1073 $x1074 $x1076 $x1078) $x1639)))
 (let (($x1065 (f9 true true)))
 (let (($x1063 (f9 true false)))
 (let (($x1061 (f9 false true)))
 (let (($x1060 (not $x1059)))
 (let (($x1637 (or (and $x1060 (not $x1061) (not $x1063) $x1065) (and $x1060 $x1061 $x1063 $x1065) $x1636)))
 (let (($x1052 (f8 true true)))
 (let (($x1050 (f8 true false)))
 (let (($x1048 (f8 false true)))
 (let (($x1047 (not $x1046)))
 (let (($x1634 (or (and $x1047 (not $x1048) (not $x1050) $x1052) (and $x1047 $x1048 $x1050 $x1052) $x1633)))
 (let (($x1039 (f7 true true)))
 (let (($x1037 (f7 true false)))
 (let (($x1035 (f7 false true)))
 (let (($x1034 (not $x1033)))
 (let (($x1631 (or (and $x1034 (not $x1035) (not $x1037) $x1039) (and $x1034 $x1035 $x1037 $x1039) $x1630)))
 (let (($x1026 (f6 true true)))
 (let (($x1024 (f6 true false)))
 (let (($x1022 (f6 false true)))
 (let (($x1021 (not $x1020)))
 (let (($x1628 (or (and $x1021 (not $x1022) (not $x1024) $x1026) (and $x1021 $x1022 $x1024 $x1026) $x1627)))
 (let (($x1013 (f5 true true)))
 (let (($x1011 (f5 true false)))
 (let (($x1009 (f5 false true)))
 (let (($x1008 (not $x1007)))
 (let (($x1625 (or (and $x1008 (not $x1009) (not $x1011) $x1013) (and $x1008 $x1009 $x1011 $x1013) $x1624)))
 (let (($x1000 (f4 true true)))
 (let (($x998 (f4 true false)))
 (let (($x996 (f4 false true)))
 (let (($x995 (not $x994)))
 (let (($x1622 (or (and $x995 (not $x996) (not $x998) $x1000) (and $x995 $x996 $x998 $x1000) $x1621)))
 (let (($x987 (f3 true true)))
 (let (($x985 (f3 true false)))
 (let (($x983 (f3 false true)))
 (let (($x982 (not $x981)))
 (let (($x1619 (or (and $x982 (not $x983) (not $x985) $x987) (and $x982 $x983 $x985 $x987) $x1618)))
 (let (($x980 (or c_11_0_1 c_11_0_2 c_11_0_3 c_11_0_4 c_11_0_5 c_11_0_6 c_11_0_7 c_11_0_8 c_11_0_9 c_11_0_10 c_11_1_2 c_11_1_3 c_11_1_4 c_11_1_5 c_11_1_6 c_11_1_7 c_11_1_8 c_11_1_9 c_11_1_10 c_11_2_3 c_11_2_4 c_11_2_5 c_11_2_6 c_11_2_7 c_11_2_8 c_11_2_9 c_11_2_10 c_11_3_4 c_11_3_5 c_11_3_6 c_11_3_7 c_11_3_8 c_11_3_9 c_11_3_10 c_11_4_5 c_11_4_6 c_11_4_7 c_11_4_8 c_11_4_9 c_11_4_10 c_11_5_6 c_11_5_7 c_11_5_8 c_11_5_9 c_11_5_10 c_11_6_7 c_11_6_8 c_11_6_9 c_11_6_10 c_11_7_8 c_11_7_9 c_11_7_10 c_11_8_9 c_11_8_10 c_11_9_10)))
 (let (($x759 (or c_10_0_1 c_10_0_2 c_10_0_3 c_10_0_4 c_10_0_5 c_10_0_6 c_10_0_7 c_10_0_8 c_10_0_9 c_10_1_2 c_10_1_3 c_10_1_4 c_10_1_5 c_10_1_6 c_10_1_7 c_10_1_8 c_10_1_9 c_10_2_3 c_10_2_4 c_10_2_5 c_10_2_6 c_10_2_7 c_10_2_8 c_10_2_9 c_10_3_4 c_10_3_5 c_10_3_6 c_10_3_7 c_10_3_8 c_10_3_9 c_10_4_5 c_10_4_6 c_10_4_7 c_10_4_8 c_10_4_9 c_10_5_6 c_10_5_7 c_10_5_8 c_10_5_9 c_10_6_7 c_10_6_8 c_10_6_9 c_10_7_8 c_10_7_9 c_10_8_9)))
 (let (($x578 (or c_9_0_1 c_9_0_2 c_9_0_3 c_9_0_4 c_9_0_5 c_9_0_6 c_9_0_7 c_9_0_8 c_9_1_2 c_9_1_3 c_9_1_4 c_9_1_5 c_9_1_6 c_9_1_7 c_9_1_8 c_9_2_3 c_9_2_4 c_9_2_5 c_9_2_6 c_9_2_7 c_9_2_8 c_9_3_4 c_9_3_5 c_9_3_6 c_9_3_7 c_9_3_8 c_9_4_5 c_9_4_6 c_9_4_7 c_9_4_8 c_9_5_6 c_9_5_7 c_9_5_8 c_9_6_7 c_9_6_8 c_9_7_8)))
 (let (($x433 (or c_8_0_1 c_8_0_2 c_8_0_3 c_8_0_4 c_8_0_5 c_8_0_6 c_8_0_7 c_8_1_2 c_8_1_3 c_8_1_4 c_8_1_5 c_8_1_6 c_8_1_7 c_8_2_3 c_8_2_4 c_8_2_5 c_8_2_6 c_8_2_7 c_8_3_4 c_8_3_5 c_8_3_6 c_8_3_7 c_8_4_5 c_8_4_6 c_8_4_7 c_8_5_6 c_8_5_7 c_8_6_7)))
 (let (($x320 (or c_7_0_1 c_7_0_2 c_7_0_3 c_7_0_4 c_7_0_5 c_7_0_6 c_7_1_2 c_7_1_3 c_7_1_4 c_7_1_5 c_7_1_6 c_7_2_3 c_7_2_4 c_7_2_5 c_7_2_6 c_7_3_4 c_7_3_5 c_7_3_6 c_7_4_5 c_7_4_6 c_7_5_6)))
 (let (($x235 (or c_6_0_1 c_6_0_2 c_6_0_3 c_6_0_4 c_6_0_5 c_6_1_2 c_6_1_3 c_6_1_4 c_6_1_5 c_6_2_3 c_6_2_4 c_6_2_5 c_6_3_4 c_6_3_5 c_6_4_5)))
 (let (($x174 (or c_5_0_1 c_5_0_2 c_5_0_3 c_5_0_4 c_5_1_2 c_5_1_3 c_5_1_4 c_5_2_3 c_5_2_4 c_5_3_4)))
 (let (($x95 (or g_1_0 g_1_1 g_1_2 g_1_3 g_1_4 g_1_5 g_1_6 g_1_7 g_1_8 g_1_9 g_1_10 g_1_11)))
 (let (($x2445 (or (not g_1_11) (= (or (and x0 x1) (and (= (not x0) x1) x2)) x11))))
 (let (($x2447 (or (not g_1_10) (= (or (and x0 x1) (and (= (not x0) x1) x2)) x10))))
 (let (($x2449 (or (not g_1_9) (= (or (and x0 x1) (and (= (not x0) x1) x2)) x9))))
 (let (($x2451 (or (not g_1_8) (= (or (and x0 x1) (and (= (not x0) x1) x2)) x8))))
 (let (($x2453 (or (not g_1_7) (= (or (and x0 x1) (and (= (not x0) x1) x2)) x7))))
 (let (($x2455 (or (not g_1_6) (= (or (and x0 x1) (and (= (not x0) x1) x2)) x6))))
 (let (($x2457 (or (not g_1_5) (= (or (and x0 x1) (and (= (not x0) x1) x2)) x5))))
 (let (($x2459 (or (not g_1_4) (= (or (and x0 x1) (and (= (not x0) x1) x2)) x4))))
 (let (($x2461 (or (not g_1_3) (= (or (and x0 x1) (and (= (not x0) x1) x2)) x3))))
 (let (($x2463 (or (not g_1_2) (= (or (and x0 x1) (and (= (not x0) x1) x2)) x2))))
 (let (($x2465 (or (not g_1_1) (= (or (and x0 x1) (and (= (not x0) x1) x2)) x1))))
 (let (($x2467 (or (not g_1_0) (= (or (and x0 x1) (and (= (not x0) x1) x2)) x0))))
 (let (($x55 (or g_0_0 g_0_1 g_0_2 g_0_3 g_0_4 g_0_5 g_0_6 g_0_7 g_0_8 g_0_9 g_0_10 g_0_11)))
 (and (or (not g_0_0) (= (= (= x0 x1) x2) x0)) (or (not g_0_1) (= (= (= x0 x1) x2) x1)) (or (not g_0_2) (= (= (= x0 x1) x2) x2)) (or (not g_0_3) (= (= (= x0 x1) x2) x3)) (or (not g_0_4) (= (= (= x0 x1) x2) x4)) (or (not g_0_5) (= (= (= x0 x1) x2) x5)) (or (not g_0_6) (= (= (= x0 x1) x2) x6)) (or (not g_0_7) (= (= (= x0 x1) x2) x7)) (or (not g_0_8) (= (= (= x0 x1) x2) x8)) (or (not g_0_9) (= (= (= x0 x1) x2) x9)) (or (not g_0_10) (= (= (= x0 x1) x2) x10)) (or (not g_0_11) (= (= (= x0 x1) x2) x11)) $x55 $x2467 $x2465 $x2463 $x2461 $x2459 $x2457 $x2455 $x2453 $x2451 $x2449 $x2447 $x2445 $x95 (or (not c_3_0_1) (= x3 (f3 x0 x1))) (or (not c_3_0_2) (= x3 (f3 x0 x2))) (or (not c_3_1_2) (= x3 (f3 x1 x2))) (or c_3_0_1 c_3_0_2 c_3_1_2) (or (not c_4_0_1) (= x4 (f4 x0 x1))) (or (not c_4_0_2) (= x4 (f4 x0 x2))) (or (not c_4_0_3) (= x4 (f4 x0 x3))) (or (not c_4_1_2) (= x4 (f4 x1 x2))) (or (not c_4_1_3) (= x4 (f4 x1 x3))) (or (not c_4_2_3) (= x4 (f4 x2 x3))) (or c_4_0_1 c_4_0_2 c_4_0_3 c_4_1_2 c_4_1_3 c_4_2_3) (or (not c_5_0_1) (= x5 (f5 x0 x1))) (or (not c_5_0_2) (= x5 (f5 x0 x2))) (or (not c_5_0_3) (= x5 (f5 x0 x3))) (or (not c_5_0_4) (= x5 (f5 x0 x4))) (or (not c_5_1_2) (= x5 (f5 x1 x2))) (or (not c_5_1_3) (= x5 (f5 x1 x3))) (or (not c_5_1_4) (= x5 (f5 x1 x4))) (or (not c_5_2_3) (= x5 (f5 x2 x3))) (or (not c_5_2_4) (= x5 (f5 x2 x4))) (or (not c_5_3_4) (= x5 (f5 x3 x4))) $x174 (or (not c_6_0_1) (= x6 (f6 x0 x1))) (or (not c_6_0_2) (= x6 (f6 x0 x2))) (or (not c_6_0_3) (= x6 (f6 x0 x3))) (or (not c_6_0_4) (= x6 (f6 x0 x4))) (or (not c_6_0_5) (= x6 (f6 x0 x5))) (or (not c_6_1_2) (= x6 (f6 x1 x2))) (or (not c_6_1_3) (= x6 (f6 x1 x3))) (or (not c_6_1_4) (= x6 (f6 x1 x4))) (or (not c_6_1_5) (= x6 (f6 x1 x5))) (or (not c_6_2_3) (= x6 (f6 x2 x3))) (or (not c_6_2_4) (= x6 (f6 x2 x4))) (or (not c_6_2_5) (= x6 (f6 x2 x5))) (or (not c_6_3_4) (= x6 (f6 x3 x4))) (or (not c_6_3_5) (= x6 (f6 x3 x5))) (or (not c_6_4_5) (= x6 (f6 x4 x5))) $x235 (or (not c_7_0_1) (= x7 (f7 x0 x1))) (or (not c_7_0_2) (= x7 (f7 x0 x2))) (or (not c_7_0_3) (= x7 (f7 x0 x3))) (or (not c_7_0_4) (= x7 (f7 x0 x4))) (or (not c_7_0_5) (= x7 (f7 x0 x5))) (or (not c_7_0_6) (= x7 (f7 x0 x6))) (or (not c_7_1_2) (= x7 (f7 x1 x2))) (or (not c_7_1_3) (= x7 (f7 x1 x3))) (or (not c_7_1_4) (= x7 (f7 x1 x4))) (or (not c_7_1_5) (= x7 (f7 x1 x5))) (or (not c_7_1_6) (= x7 (f7 x1 x6))) (or (not c_7_2_3) (= x7 (f7 x2 x3))) (or (not c_7_2_4) (= x7 (f7 x2 x4))) (or (not c_7_2_5) (= x7 (f7 x2 x5))) (or (not c_7_2_6) (= x7 (f7 x2 x6))) (or (not c_7_3_4) (= x7 (f7 x3 x4))) (or (not c_7_3_5) (= x7 (f7 x3 x5))) (or (not c_7_3_6) (= x7 (f7 x3 x6))) (or (not c_7_4_5) (= x7 (f7 x4 x5))) (or (not c_7_4_6) (= x7 (f7 x4 x6))) (or (not c_7_5_6) (= x7 (f7 x5 x6))) $x320 (or (not c_8_0_1) (= x8 (f8 x0 x1))) (or (not c_8_0_2) (= x8 (f8 x0 x2))) (or (not c_8_0_3) (= x8 (f8 x0 x3))) (or (not c_8_0_4) (= x8 (f8 x0 x4))) (or (not c_8_0_5) (= x8 (f8 x0 x5))) (or (not c_8_0_6) (= x8 (f8 x0 x6))) (or (not c_8_0_7) (= x8 (f8 x0 x7))) (or (not c_8_1_2) (= x8 (f8 x1 x2))) (or (not c_8_1_3) (= x8 (f8 x1 x3))) (or (not c_8_1_4) (= x8 (f8 x1 x4))) (or (not c_8_1_5) (= x8 (f8 x1 x5))) (or (not c_8_1_6) (= x8 (f8 x1 x6))) (or (not c_8_1_7) (= x8 (f8 x1 x7))) (or (not c_8_2_3) (= x8 (f8 x2 x3))) (or (not c_8_2_4) (= x8 (f8 x2 x4))) (or (not c_8_2_5) (= x8 (f8 x2 x5))) (or (not c_8_2_6) (= x8 (f8 x2 x6))) (or (not c_8_2_7) (= x8 (f8 x2 x7))) (or (not c_8_3_4) (= x8 (f8 x3 x4))) (or (not c_8_3_5) (= x8 (f8 x3 x5))) (or (not c_8_3_6) (= x8 (f8 x3 x6))) (or (not c_8_3_7) (= x8 (f8 x3 x7))) (or (not c_8_4_5) (= x8 (f8 x4 x5))) (or (not c_8_4_6) (= x8 (f8 x4 x6))) (or (not c_8_4_7) (= x8 (f8 x4 x7))) (or (not c_8_5_6) (= x8 (f8 x5 x6))) (or (not c_8_5_7) (= x8 (f8 x5 x7))) (or (not c_8_6_7) (= x8 (f8 x6 x7))) $x433 (or (not c_9_0_1) (= x9 (f9 x0 x1))) (or (not c_9_0_2) (= x9 (f9 x0 x2))) (or (not c_9_0_3) (= x9 (f9 x0 x3))) (or (not c_9_0_4) (= x9 (f9 x0 x4))) (or (not c_9_0_5) (= x9 (f9 x0 x5))) (or (not c_9_0_6) (= x9 (f9 x0 x6))) (or (not c_9_0_7) (= x9 (f9 x0 x7))) (or (not c_9_0_8) (= x9 (f9 x0 x8))) (or (not c_9_1_2) (= x9 (f9 x1 x2))) (or (not c_9_1_3) (= x9 (f9 x1 x3))) (or (not c_9_1_4) (= x9 (f9 x1 x4))) (or (not c_9_1_5) (= x9 (f9 x1 x5))) (or (not c_9_1_6) (= x9 (f9 x1 x6))) (or (not c_9_1_7) (= x9 (f9 x1 x7))) (or (not c_9_1_8) (= x9 (f9 x1 x8))) (or (not c_9_2_3) (= x9 (f9 x2 x3))) (or (not c_9_2_4) (= x9 (f9 x2 x4))) (or (not c_9_2_5) (= x9 (f9 x2 x5))) (or (not c_9_2_6) (= x9 (f9 x2 x6))) (or (not c_9_2_7) (= x9 (f9 x2 x7))) (or (not c_9_2_8) (= x9 (f9 x2 x8))) (or (not c_9_3_4) (= x9 (f9 x3 x4))) (or (not c_9_3_5) (= x9 (f9 x3 x5))) (or (not c_9_3_6) (= x9 (f9 x3 x6))) (or (not c_9_3_7) (= x9 (f9 x3 x7))) (or (not c_9_3_8) (= x9 (f9 x3 x8))) (or (not c_9_4_5) (= x9 (f9 x4 x5))) (or (not c_9_4_6) (= x9 (f9 x4 x6))) (or (not c_9_4_7) (= x9 (f9 x4 x7))) (or (not c_9_4_8) (= x9 (f9 x4 x8))) (or (not c_9_5_6) (= x9 (f9 x5 x6))) (or (not c_9_5_7) (= x9 (f9 x5 x7))) (or (not c_9_5_8) (= x9 (f9 x5 x8))) (or (not c_9_6_7) (= x9 (f9 x6 x7))) (or (not c_9_6_8) (= x9 (f9 x6 x8))) (or (not c_9_7_8) (= x9 (f9 x7 x8))) $x578 (or (not c_10_0_1) (= x10 (f10 x0 x1))) (or (not c_10_0_2) (= x10 (f10 x0 x2))) (or (not c_10_0_3) (= x10 (f10 x0 x3))) (or (not c_10_0_4) (= x10 (f10 x0 x4))) (or (not c_10_0_5) (= x10 (f10 x0 x5))) (or (not c_10_0_6) (= x10 (f10 x0 x6))) (or (not c_10_0_7) (= x10 (f10 x0 x7))) (or (not c_10_0_8) (= x10 (f10 x0 x8))) (or (not c_10_0_9) (= x10 (f10 x0 x9))) (or (not c_10_1_2) (= x10 (f10 x1 x2))) (or (not c_10_1_3) (= x10 (f10 x1 x3))) (or (not c_10_1_4) (= x10 (f10 x1 x4))) (or (not c_10_1_5) (= x10 (f10 x1 x5))) (or (not c_10_1_6) (= x10 (f10 x1 x6))) (or (not c_10_1_7) (= x10 (f10 x1 x7))) (or (not c_10_1_8) (= x10 (f10 x1 x8))) (or (not c_10_1_9) (= x10 (f10 x1 x9))) (or (not c_10_2_3) (= x10 (f10 x2 x3))) (or (not c_10_2_4) (= x10 (f10 x2 x4))) (or (not c_10_2_5) (= x10 (f10 x2 x5))) (or (not c_10_2_6) (= x10 (f10 x2 x6))) (or (not c_10_2_7) (= x10 (f10 x2 x7))) (or (not c_10_2_8) (= x10 (f10 x2 x8))) (or (not c_10_2_9) (= x10 (f10 x2 x9))) (or (not c_10_3_4) (= x10 (f10 x3 x4))) (or (not c_10_3_5) (= x10 (f10 x3 x5))) (or (not c_10_3_6) (= x10 (f10 x3 x6))) (or (not c_10_3_7) (= x10 (f10 x3 x7))) (or (not c_10_3_8) (= x10 (f10 x3 x8))) (or (not c_10_3_9) (= x10 (f10 x3 x9))) (or (not c_10_4_5) (= x10 (f10 x4 x5))) (or (not c_10_4_6) (= x10 (f10 x4 x6))) (or (not c_10_4_7) (= x10 (f10 x4 x7))) (or (not c_10_4_8) (= x10 (f10 x4 x8))) (or (not c_10_4_9) (= x10 (f10 x4 x9))) (or (not c_10_5_6) (= x10 (f10 x5 x6))) (or (not c_10_5_7) (= x10 (f10 x5 x7))) (or (not c_10_5_8) (= x10 (f10 x5 x8))) (or (not c_10_5_9) (= x10 (f10 x5 x9))) (or (not c_10_6_7) (= x10 (f10 x6 x7))) (or (not c_10_6_8) (= x10 (f10 x6 x8))) (or (not c_10_6_9) (= x10 (f10 x6 x9))) (or (not c_10_7_8) (= x10 (f10 x7 x8))) (or (not c_10_7_9) (= x10 (f10 x7 x9))) (or (not c_10_8_9) (= x10 (f10 x8 x9))) $x759 (or (not c_11_0_1) (= x11 (f11 x0 x1))) (or (not c_11_0_2) (= x11 (f11 x0 x2))) (or (not c_11_0_3) (= x11 (f11 x0 x3))) (or (not c_11_0_4) (= x11 (f11 x0 x4))) (or (not c_11_0_5) (= x11 (f11 x0 x5))) (or (not c_11_0_6) (= x11 (f11 x0 x6))) (or (not c_11_0_7) (= x11 (f11 x0 x7))) (or (not c_11_0_8) (= x11 (f11 x0 x8))) (or (not c_11_0_9) (= x11 (f11 x0 x9))) (or (not c_11_0_10) (= x11 (f11 x0 x10))) (or (not c_11_1_2) (= x11 (f11 x1 x2))) (or (not c_11_1_3) (= x11 (f11 x1 x3))) (or (not c_11_1_4) (= x11 (f11 x1 x4))) (or (not c_11_1_5) (= x11 (f11 x1 x5))) (or (not c_11_1_6) (= x11 (f11 x1 x6))) (or (not c_11_1_7) (= x11 (f11 x1 x7))) (or (not c_11_1_8) (= x11 (f11 x1 x8))) (or (not c_11_1_9) (= x11 (f11 x1 x9))) (or (not c_11_1_10) (= x11 (f11 x1 x10))) (or (not c_11_2_3) (= x11 (f11 x2 x3))) (or (not c_11_2_4) (= x11 (f11 x2 x4))) (or (not c_11_2_5) (= x11 (f11 x2 x5))) (or (not c_11_2_6) (= x11 (f11 x2 x6))) (or (not c_11_2_7) (= x11 (f11 x2 x7))) (or (not c_11_2_8) (= x11 (f11 x2 x8))) (or (not c_11_2_9) (= x11 (f11 x2 x9))) (or (not c_11_2_10) (= x11 (f11 x2 x10))) (or (not c_11_3_4) (= x11 (f11 x3 x4))) (or (not c_11_3_5) (= x11 (f11 x3 x5))) (or (not c_11_3_6) (= x11 (f11 x3 x6))) (or (not c_11_3_7) (= x11 (f11 x3 x7))) (or (not c_11_3_8) (= x11 (f11 x3 x8))) (or (not c_11_3_9) (= x11 (f11 x3 x9))) (or (not c_11_3_10) (= x11 (f11 x3 x10))) (or (not c_11_4_5) (= x11 (f11 x4 x5))) (or (not c_11_4_6) (= x11 (f11 x4 x6))) (or (not c_11_4_7) (= x11 (f11 x4 x7))) (or (not c_11_4_8) (= x11 (f11 x4 x8))) (or (not c_11_4_9) (= x11 (f11 x4 x9))) (or (not c_11_4_10) (= x11 (f11 x4 x10))) (or (not c_11_5_6) (= x11 (f11 x5 x6))) (or (not c_11_5_7) (= x11 (f11 x5 x7))) (or (not c_11_5_8) (= x11 (f11 x5 x8))) (or (not c_11_5_9) (= x11 (f11 x5 x9))) (or (not c_11_5_10) (= x11 (f11 x5 x10))) (or (not c_11_6_7) (= x11 (f11 x6 x7))) (or (not c_11_6_8) (= x11 (f11 x6 x8))) (or (not c_11_6_9) (= x11 (f11 x6 x9))) (or (not c_11_6_10) (= x11 (f11 x6 x10))) (or (not c_11_7_8) (= x11 (f11 x7 x8))) (or (not c_11_7_9) (= x11 (f11 x7 x9))) (or (not c_11_7_10) (= x11 (f11 x7 x10))) (or (not c_11_8_9) (= x11 (f11 x8 x9))) (or (not c_11_8_10) (= x11 (f11 x8 x10))) (or (not c_11_9_10) (= x11 (f11 x9 x10))) $x980 $x1619 $x1622 $x1625 $x1628 $x1631 $x1634 $x1637 $x1640 $x1643 $x1669)))))))))))))))))))))))))))))))))))))))))))))))))))))))))))))))))))))))))))))))))))))))
 )
 )
(check-sat)
(get-model)
